(benchmark gametime
:status unknown
:logic QF_AUFBV
:extrafuns ((gtINDEX51  BitVec[32]))
:extrafuns ((gtFIELD__bitsForTID0__gtAGG____anonstruct_D_Work_4  Array[32:32]))
:extrafuns ((gtINDEX52  BitVec[32]))
:extrafuns ((gtAGG__rtDWork  BitVec[32]))
:extrafuns ((gtINDEX49  BitVec[32]))
:extrafuns ((gtINDEX50  BitVec[32]))
:extrafuns ((gtINDEX47  BitVec[32]))
:extrafuns ((gtINDEX48  BitVec[32]))
:extrafuns ((gtINDEX45  BitVec[32]))
:extrafuns ((gtINDEX46  BitVec[32]))
:extrafuns ((gtINDEX44  BitVec[32]))
:extrafuns ((gtINDEX43  BitVec[32]))
:extrafuns ((gtINDEX42  BitVec[32]))
:extrafuns ((gtINDEX41  BitVec[32]))
:extrafuns ((gtINDEX39  BitVec[32]))
:extrafuns ((gtINDEX40  BitVec[32]))
:extrafuns ((gtINDEX37  BitVec[32]))
:extrafuns ((gtINDEX38  BitVec[32]))
:extrafuns ((gtINDEX35  BitVec[32]))
:extrafuns ((gtINDEX36  BitVec[32]))
:extrafuns ((gtINDEX33  BitVec[32]))
:extrafuns ((gtINDEX34  BitVec[32]))
:extrafuns ((gtINDEX31  BitVec[32]))
:extrafuns ((gtINDEX32  BitVec[32]))
:extrafuns ((gtINDEX29  BitVec[32]))
:extrafuns ((gtINDEX30  BitVec[32]))
:extrafuns ((gtINDEX27  BitVec[32]))
:extrafuns ((gtINDEX28  BitVec[32]))
:extrafuns ((gtINDEX25  BitVec[32]))
:extrafuns ((gtINDEX26  BitVec[32]))
:extrafuns ((gtINDEX23  BitVec[32]))
:extrafuns ((gtINDEX24  BitVec[32]))
:extrafuns ((gtINDEX22  BitVec[32]))
:extrafuns ((gtINDEX21  BitVec[32]))
:extrafuns ((gtINDEX20  BitVec[32]))
:extrafuns ((gtINDEX19  BitVec[32]))
:extrafuns ((gtINDEX18  BitVec[32]))
:extrafuns ((gtINDEX16  BitVec[32]))
:extrafuns ((gtINDEX17  BitVec[32]))
:extrafuns ((gtINDEX14  BitVec[32]))
:extrafuns ((gtINDEX15  BitVec[32]))
:extrafuns ((gtINDEX12  BitVec[32]))
:extrafuns ((gtINDEX13  BitVec[32]))
:extrafuns ((gtINDEX10  BitVec[32]))
:extrafuns ((gtINDEX11  BitVec[32]))
:extrafuns ((gtINDEX8  BitVec[32]))
:extrafuns ((gtINDEX9  BitVec[32]))
:extrafuns ((gtINDEX6  BitVec[32]))
:extrafuns ((gtINDEX7  BitVec[32]))
:extrafuns ((gtINDEX4  BitVec[32]))
:extrafuns ((gtINDEX5  BitVec[32]))
:extrafuns ((gtINDEX2  BitVec[32]))
:extrafuns ((gtINDEX3  BitVec[32]))
:extrafuns ((gtINDEX0  BitVec[32]))
:extrafuns ((gtINDEX1  BitVec[32]))
:extrafuns ((gtFIELD__is_Eng__gtAGG____anonstruct_bitsForTID0_5_1_  Array[32:1]))
:extrafuns ((gtFIELD__is_Eng__gtAGG____anonstruct_bitsForTID0_5_2_  Array[32:1]))
:extrafuns ((sf_previousEvent_1_  BitVec[32]))
:extrafuns ((sfEvent__2_  BitVec[32]))
:extrafuns ((gtFIELD__is_Eng__gtAGG____anonstruct_bitsForTID0_5  Array[32:1]))
:extrafuns ((gtFIELD__sent__gtAGG____anonstruct_D_Work_4_1_  Array[32:32]))
:extrafuns ((gtFIELD__sent__gtAGG____anonstruct_D_Work_4_2_  Array[32:32]))
:extrafuns ((gtFIELD__is_active_Eng__gtAGG____anonstruct_bitsForTID0_5  Array[32:1]))
:extrafuns ((gtFIELD__is_active_PURI__gtAGG____anonstruct_bitsForTID0_5  Array[32:1]))
:extrafuns ((gtFIELD__is_active_PVRP__gtAGG____anonstruct_bitsForTID0_5  Array[32:1]))
:extrafuns ((gtFIELD__is_active_PPVARP__gtAGG____anonstruct_bitsForTID0_5  Array[32:1]))
:extrafuns ((sfEvent__1_  BitVec[32]))
:extrafuns ((gtFIELD__is_PLRI__gtAGG____anonstruct_bitsForTID0_5  Array[32:2]))
:extrafuns ((gtFIELD__is_active_PLRI__gtAGG____anonstruct_bitsForTID0_5  Array[32:1]))
:extrafuns ((gtFIELD__is_active_PAVI__gtAGG____anonstruct_bitsForTID0_5  Array[32:1]))
:extrafuns ((sfEvent_  BitVec[32]))
:extrafuns ((gtFIELD__sent__gtAGG____anonstruct_D_Work_4  Array[32:32]))
:extrapreds ((constraint92 ))
:extrapreds ((constraint91 ))
:extrapreds ((constraint90 ))
:extrapreds ((constraint89 ))
:extrapreds ((constraint88 ))
:extrapreds ((constraint87 ))
:extrapreds ((constraint86 ))
:extrapreds ((constraint85 ))
:extrapreds ((constraint84 ))
:extrapreds ((constraint83 ))
:extrapreds ((constraint82 ))
:extrapreds ((constraint81 ))
:extrapreds ((constraint80 ))
:extrapreds ((constraint79 ))
:extrapreds ((constraint78 ))
:extrapreds ((constraint77 ))
:extrapreds ((constraint76 ))
:extrapreds ((constraint75 ))
:extrapreds ((constraint74 ))
:extrapreds ((constraint73 ))
:extrapreds ((constraint72 ))
:extrapreds ((constraint71 ))
:extrapreds ((constraint70 ))
:extrapreds ((constraint69 ))
:extrapreds ((constraint68 ))
:extrapreds ((constraint67 ))
:extrapreds ((constraint66 ))
:extrapreds ((constraint65 ))
:extrapreds ((constraint64 ))
:extrapreds ((constraint63 ))
:extrapreds ((constraint62 ))
:extrapreds ((constraint61 ))
:extrapreds ((constraint60 ))
:extrapreds ((constraint59 ))
:extrapreds ((constraint58 ))
:extrapreds ((constraint57 ))
:extrapreds ((constraint56 ))
:extrapreds ((constraint55 ))
:extrapreds ((constraint54 ))
:extrapreds ((constraint53 ))
:extrapreds ((constraint52 ))
:extrapreds ((constraint51 ))
:extrapreds ((constraint50 ))
:extrapreds ((constraint49 ))
:extrapreds ((constraint48 ))
:extrapreds ((constraint47 ))
:extrapreds ((constraint46 ))
:extrapreds ((constraint45 ))
:extrapreds ((constraint44 ))
:extrapreds ((constraint43 ))
:extrapreds ((constraint42 ))
:extrapreds ((constraint41 ))
:extrapreds ((constraint40 ))
:extrapreds ((constraint39 ))
:extrapreds ((constraint38 ))
:extrapreds ((constraint37 ))
:extrapreds ((constraint36 ))
:extrapreds ((constraint35 ))
:extrapreds ((constraint34 ))
:extrapreds ((constraint33 ))
:extrapreds ((constraint32 ))
:extrapreds ((constraint31 ))
:extrapreds ((constraint30 ))
:extrapreds ((constraint29 ))
:extrapreds ((constraint28 ))
:extrapreds ((constraint27 ))
:extrapreds ((constraint26 ))
:extrapreds ((constraint25 ))
:extrapreds ((constraint24 ))
:extrapreds ((constraint23 ))
:extrapreds ((constraint22 ))
:extrapreds ((constraint21 ))
:extrapreds ((constraint20 ))
:extrapreds ((constraint19 ))
:extrapreds ((constraint18 ))
:extrapreds ((constraint17 ))
:extrapreds ((constraint16 ))
:extrapreds ((constraint15 ))
:extrapreds ((constraint14 ))
:extrapreds ((constraint13 ))
:extrapreds ((constraint12 ))
:extrapreds ((constraint11 ))
:extrapreds ((constraint10 ))
:extrapreds ((constraint9 ))
:extrapreds ((constraint8 ))
:extrapreds ((constraint7 ))
:extrapreds ((constraint6 ))
:extrapreds ((constraint5 ))
:extrapreds ((constraint4 ))
:extrapreds ((constraint3 ))
:extrapreds ((constraint2 ))
:extrapreds ((constraint1 ))
:extrapreds ((constraint0 ))
:formula
(flet ($x490 (and constraint0 constraint1 constraint2 constraint3 constraint4 constraint5 constraint6 constraint7 constraint8 constraint9 constraint10 constraint11 constraint12 constraint13 constraint14 constraint15 constraint16 constraint17 constraint18 constraint19 constraint20 constraint21 constraint22 constraint23 constraint24 constraint25 constraint26 constraint27 constraint28 constraint29 constraint30 constraint31 constraint32 constraint33 constraint34 constraint35 constraint36 constraint37 constraint38 constraint39 constraint40 constraint41 constraint42 constraint43 constraint44 constraint45 constraint46 constraint47 constraint48 constraint49 constraint50 constraint51 constraint52 constraint53 constraint54 constraint55 constraint56 constraint57 constraint58 constraint59 constraint60 constraint61 constraint62 constraint63 constraint64 constraint65 constraint66 constraint67 constraint68 constraint69 constraint70 constraint71 constraint72 constraint73 constraint74 constraint75 constraint76 constraint77 constraint78 constraint79 constraint80 constraint81 constraint82 constraint83 constraint84 constraint85 constraint86 constraint87 constraint88 constraint89 constraint90 constraint91 constraint92))
(flet ($x302 (= gtINDEX52 (select gtFIELD__bitsForTID0__gtAGG____anonstruct_D_Work_4 gtINDEX51)))
(flet ($x298 (= gtINDEX50 (select gtFIELD__bitsForTID0__gtAGG____anonstruct_D_Work_4 gtINDEX49)))
(flet ($x294 (= gtINDEX48 (select gtFIELD__bitsForTID0__gtAGG____anonstruct_D_Work_4 gtINDEX47)))
(flet ($x290 (= gtINDEX46 (select gtFIELD__bitsForTID0__gtAGG____anonstruct_D_Work_4 gtINDEX45)))
(flet ($x282 (= gtINDEX40 (select gtFIELD__bitsForTID0__gtAGG____anonstruct_D_Work_4 gtINDEX39)))
(flet ($x278 (= gtINDEX38 (select gtFIELD__bitsForTID0__gtAGG____anonstruct_D_Work_4 gtINDEX37)))
(flet ($x274 (= gtINDEX36 (select gtFIELD__bitsForTID0__gtAGG____anonstruct_D_Work_4 gtINDEX35)))
(flet ($x270 (= gtINDEX34 (select gtFIELD__bitsForTID0__gtAGG____anonstruct_D_Work_4 gtINDEX33)))
(flet ($x266 (= gtINDEX32 (select gtFIELD__bitsForTID0__gtAGG____anonstruct_D_Work_4 gtINDEX31)))
(flet ($x262 (= gtINDEX30 (select gtFIELD__bitsForTID0__gtAGG____anonstruct_D_Work_4 gtINDEX29)))
(flet ($x258 (= gtINDEX28 (select gtFIELD__bitsForTID0__gtAGG____anonstruct_D_Work_4 gtINDEX27)))
(flet ($x254 (= gtINDEX26 (select gtFIELD__bitsForTID0__gtAGG____anonstruct_D_Work_4 gtINDEX25)))
(flet ($x250 (= gtINDEX24 (select gtFIELD__bitsForTID0__gtAGG____anonstruct_D_Work_4 gtINDEX23)))
(flet ($x241 (= gtINDEX17 (select gtFIELD__bitsForTID0__gtAGG____anonstruct_D_Work_4 gtINDEX16)))
(flet ($x237 (= gtINDEX15 (select gtFIELD__bitsForTID0__gtAGG____anonstruct_D_Work_4 gtINDEX14)))
(flet ($x233 (= gtINDEX13 (select gtFIELD__bitsForTID0__gtAGG____anonstruct_D_Work_4 gtINDEX12)))
(flet ($x229 (= gtINDEX11 (select gtFIELD__bitsForTID0__gtAGG____anonstruct_D_Work_4 gtINDEX10)))
(flet ($x225 (= gtINDEX9 (select gtFIELD__bitsForTID0__gtAGG____anonstruct_D_Work_4 gtINDEX8)))
(flet ($x221 (= gtINDEX7 (select gtFIELD__bitsForTID0__gtAGG____anonstruct_D_Work_4 gtINDEX6)))
(flet ($x217 (= gtINDEX5 (select gtFIELD__bitsForTID0__gtAGG____anonstruct_D_Work_4 gtINDEX4)))
(flet ($x213 (= gtINDEX3 (select gtFIELD__bitsForTID0__gtAGG____anonstruct_D_Work_4 gtINDEX2)))
(flet ($x209 (= gtINDEX1 (select gtFIELD__bitsForTID0__gtAGG____anonstruct_D_Work_4 gtINDEX0)))
(let (?x193 (extract[0:0] bv1[32]))
(let (?x203 (store gtFIELD__is_Eng__gtAGG____anonstruct_bitsForTID0_5_1_ gtINDEX52 ?x193))
(flet ($x382 (iff constraint39 (= gtFIELD__is_Eng__gtAGG____anonstruct_bitsForTID0_5_2_ ?x203)))
(let (?x199 (select gtFIELD__is_Eng__gtAGG____anonstruct_bitsForTID0_5_1_ gtINDEX50))
(let (?x194 (store gtFIELD__is_Eng__gtAGG____anonstruct_bitsForTID0_5 gtINDEX48 ?x193))
(flet ($x376 (iff constraint36 (= gtFIELD__is_Eng__gtAGG____anonstruct_bitsForTID0_5_1_ ?x194)))
(let (?x190 (zero_extend[31] (select gtFIELD__is_Eng__gtAGG____anonstruct_bitsForTID0_5 gtINDEX46)))
(let (?x186 (store gtFIELD__sent__gtAGG____anonstruct_D_Work_4_1_ gtINDEX44 bv0[32]))
(flet ($x372 (iff constraint34 (= gtFIELD__sent__gtAGG____anonstruct_D_Work_4_2_ ?x186)))
(let (?x108 (bvmul bv4294967295[32] bv1[32]))
(flet ($x184 (= (select gtFIELD__sent__gtAGG____anonstruct_D_Work_4_1_ gtINDEX43) ?x108))
(flet ($x180 (= (select gtFIELD__sent__gtAGG____anonstruct_D_Work_4_1_ gtINDEX42) bv9[32]))
(flet ($x176 (= (select gtFIELD__sent__gtAGG____anonstruct_D_Work_4_1_ gtINDEX41) bv4[32]))
(let (?x172 (zero_extend[31] (select gtFIELD__is_Eng__gtAGG____anonstruct_bitsForTID0_5 gtINDEX40)))
(let (?x166 (select gtFIELD__is_active_Eng__gtAGG____anonstruct_bitsForTID0_5 gtINDEX38))
(let (?x160 (select gtFIELD__is_active_PURI__gtAGG____anonstruct_bitsForTID0_5 gtINDEX36))
(let (?x154 (select gtFIELD__is_active_PVRP__gtAGG____anonstruct_bitsForTID0_5 gtINDEX34))
(let (?x148 (select gtFIELD__is_active_PPVARP__gtAGG____anonstruct_bitsForTID0_5 gtINDEX32))
(let (?x140 (select gtFIELD__is_PLRI__gtAGG____anonstruct_bitsForTID0_5 gtINDEX30))
(let (?x135 (select gtFIELD__is_PLRI__gtAGG____anonstruct_bitsForTID0_5 gtINDEX28))
(let (?x130 (select gtFIELD__is_active_PLRI__gtAGG____anonstruct_bitsForTID0_5 gtINDEX26))
(let (?x124 (select gtFIELD__is_active_PAVI__gtAGG____anonstruct_bitsForTID0_5 gtINDEX24))
(flet ($x116 (= gtFIELD__sent__gtAGG____anonstruct_D_Work_4_1_ (store gtFIELD__sent__gtAGG____anonstruct_D_Work_4 gtINDEX22 ?x108)))
(flet ($x113 (= (select gtFIELD__sent__gtAGG____anonstruct_D_Work_4 gtINDEX21) bv1[32]))
(flet ($x109 (= (select gtFIELD__sent__gtAGG____anonstruct_D_Work_4 gtINDEX20) ?x108))
(flet ($x103 (= (select gtFIELD__sent__gtAGG____anonstruct_D_Work_4 gtINDEX19) bv9[32]))
(flet ($x98 (= (select gtFIELD__sent__gtAGG____anonstruct_D_Work_4 gtINDEX18) bv4[32]))
(let (?x94 (zero_extend[31] (select gtFIELD__is_Eng__gtAGG____anonstruct_bitsForTID0_5 gtINDEX17)))
(let (?x88 (select gtFIELD__is_active_Eng__gtAGG____anonstruct_bitsForTID0_5 gtINDEX15))
(let (?x82 (select gtFIELD__is_active_PURI__gtAGG____anonstruct_bitsForTID0_5 gtINDEX13))
(let (?x76 (select gtFIELD__is_active_PVRP__gtAGG____anonstruct_bitsForTID0_5 gtINDEX11))
(let (?x70 (select gtFIELD__is_active_PPVARP__gtAGG____anonstruct_bitsForTID0_5 gtINDEX9))
(let (?x60 (zero_extend[30] (select gtFIELD__is_PLRI__gtAGG____anonstruct_bitsForTID0_5 gtINDEX7)))
(let (?x54 (zero_extend[30] (select gtFIELD__is_PLRI__gtAGG____anonstruct_bitsForTID0_5 gtINDEX5)))
(let (?x48 (select gtFIELD__is_active_PLRI__gtAGG____anonstruct_bitsForTID0_5 gtINDEX3))
(let (?x41 (select gtFIELD__is_active_PAVI__gtAGG____anonstruct_bitsForTID0_5 gtINDEX1))
(flet ($x489 (and (iff constraint0 (not (= sfEvent_ bv8[32]))) (iff constraint1 (not (not (= (zero_extend[31] ?x41) bv0[32])))) (iff constraint2 (not (= (zero_extend[31] ?x48) bv0[32]))) (iff constraint3 (not (= ?x54 bv1[32]))) (iff constraint4 (= ?x60 bv2[32])) (iff constraint5 (not (= sfEvent_ bv4[32]))) (iff constraint6 (not (= sfEvent_ bv5[32]))) (iff constraint7 (not (not (= (zero_extend[31] ?x70) bv0[32])))) (iff constraint8 (not (not (= (zero_extend[31] ?x76) bv0[32])))) (iff constraint9 (not (not (= (zero_extend[31] ?x82) bv0[32])))) (iff constraint10 (not (= (zero_extend[31] ?x88) bv0[32]))) (iff constraint11 (= ?x94 bv1[32])) (iff constraint12 (not $x98)) (iff constraint13 (not $x103)) (iff constraint14 (not $x109)) (iff constraint15 $x113) (iff constraint16 $x116) (iff constraint17 (= sf_previousEvent_1_ sfEvent_)) (iff constraint18 (= sfEvent__1_ bv2[32])) (iff constraint19 (not (= sfEvent__1_ bv8[32]))) (iff constraint20 (not (not (= (zero_extend[31] ?x124) bv0[32])))) (iff constraint21 (not (= (zero_extend[31] ?x130) bv0[32]))) (iff constraint22 (not (= (zero_extend[30] ?x135) bv1[32]))) (iff constraint23 (= (zero_extend[30] ?x140) bv2[32])) (iff constraint24 (not (= sfEvent__1_ bv4[32]))) (iff constraint25 (not (= sfEvent__1_ bv5[32]))) (iff constraint26 (not (not (= (zero_extend[31] ?x148) bv0[32])))) (iff constraint27 (not (not (= (zero_extend[31] ?x154) bv0[32])))) (iff constraint28 (not (not (= (zero_extend[31] ?x160) bv0[32])))) (iff constraint29 (not (= (zero_extend[31] ?x166) bv0[32]))) (iff constraint30 (= ?x172 bv1[32])) (iff constraint31 (not $x176)) (iff constraint32 (not $x180)) (iff constraint33 $x184) $x372 (iff constraint35 (= ?x190 bv1[32])) $x376 (iff constraint37 (= sfEvent__2_ sf_previousEvent_1_)) (iff constraint38 (= (zero_extend[31] ?x199) bv1[32])) $x382 (iff constraint40 (= gtINDEX0 gtAGG__rtDWork)) (iff constraint41 $x209) (iff constraint42 (= gtINDEX2 gtAGG__rtDWork)) (iff constraint43 $x213) (iff constraint44 (= gtINDEX4 gtAGG__rtDWork)) (iff constraint45 $x217) (iff constraint46 (= gtINDEX6 gtAGG__rtDWork)) (iff constraint47 $x221) (iff constraint48 (= gtINDEX8 gtAGG__rtDWork)) (iff constraint49 $x225) (iff constraint50 (= gtINDEX10 gtAGG__rtDWork)) (iff constraint51 $x229) (iff constraint52 (= gtINDEX12 gtAGG__rtDWork)) (iff constraint53 $x233) (iff constraint54 (= gtINDEX14 gtAGG__rtDWork)) (iff constraint55 $x237) (iff constraint56 (= gtINDEX16 gtAGG__rtDWork)) (iff constraint57 $x241) (iff constraint58 (= gtINDEX18 gtAGG__rtDWork)) (iff constraint59 (= gtINDEX19 gtAGG__rtDWork)) (iff constraint60 (= gtINDEX20 gtAGG__rtDWork)) (iff constraint61 (= gtINDEX21 gtAGG__rtDWork)) (iff constraint62 (= gtINDEX22 gtAGG__rtDWork)) (iff constraint63 (= gtINDEX23 gtAGG__rtDWork)) (iff constraint64 $x250) (iff constraint65 (= gtINDEX25 gtAGG__rtDWork)) (iff constraint66 $x254) (iff constraint67 (= gtINDEX27 gtAGG__rtDWork)) (iff constraint68 $x258) (iff constraint69 (= gtINDEX29 gtAGG__rtDWork)) (iff constraint70 $x262) (iff constraint71 (= gtINDEX31 gtAGG__rtDWork)) (iff constraint72 $x266) (iff constraint73 (= gtINDEX33 gtAGG__rtDWork)) (iff constraint74 $x270) (iff constraint75 (= gtINDEX35 gtAGG__rtDWork)) (iff constraint76 $x274) (iff constraint77 (= gtINDEX37 gtAGG__rtDWork)) (iff constraint78 $x278) (iff constraint79 (= gtINDEX39 gtAGG__rtDWork)) (iff constraint80 $x282) (iff constraint81 (= gtINDEX41 gtAGG__rtDWork)) (iff constraint82 (= gtINDEX42 gtAGG__rtDWork)) (iff constraint83 (= gtINDEX43 gtAGG__rtDWork)) (iff constraint84 (= gtINDEX44 gtAGG__rtDWork)) (iff constraint85 (= gtINDEX45 gtAGG__rtDWork)) (iff constraint86 $x290) (iff constraint87 (= gtINDEX47 gtAGG__rtDWork)) (iff constraint88 $x294) (iff constraint89 (= gtINDEX49 gtAGG__rtDWork)) (iff constraint90 $x298) (iff constraint91 (= gtINDEX51 gtAGG__rtDWork)) (iff constraint92 $x302)))
(and $x489 $x490)))))))))))))))))))))))))))))))))))))))))))))))))))))))))))))
)
